\ENCODING=ISO-8859-1
\Problem name: IloCplex

Minimize
 obj1: - 20 x_0_0 - 20 x_1_0 - 1.57079637050629 x_2_0 - 20 x_0_1 - 20 x_0_2
       - 1.57079637050629 x_2_1 - 20 x_0_3 - 1.57079637050629 x_2_2 - 20 x_0_4
       - 1.57079637050629 x_2_3 - 20 x_0_5 - 1.57079637050629 x_2_4 - 20 x_0_6
       - 1.57079637050629 x_2_5 - 20 x_0_7 - 1.57079637050629 x_2_6 - 20 x_0_8
       - 1.57079637050629 x_2_7 - 20 x_0_9 - 1.57079637050629 x_2_8 - 20 x_0_10
       - 1.57079637050629 x_2_9 - 20 x_0_11 - 1.57079637050629 x_2_10
       - 20 x_0_12 - 1.57079637050629 x_2_11 - 20 x_0_13
       - 1.57079637050629 x_2_12 - 20 x_0_14 - 1.57079637050629 x_2_13
       - 1.57079637050629 x_2_14 - 20 x_1_1 - 20 x_1_2 - 20 x_1_3 - 20 x_1_4
       - 20 x_1_5 - 20 x_1_6 - 20 x_1_7 - 20 x_1_8 - 20 x_1_9 - 20 x_1_10
       - 20 x_1_11 - 20 x_1_12 - 20 x_1_13 - 20 x_1_14 + [ 2 x_0_0 ^2
       + 2 x_1_0 ^2 + 2 x_2_0 ^2 + 2 x_0_1 ^2 + 0.0199999995529652 u_0_0 ^2
       + 2 x_0_2 ^2 + 2 x_2_1 ^2 + 0.0199999995529652 u_0_1 ^2 + 2 x_0_3 ^2
       + 2 x_2_2 ^2 + 0.0199999995529652 u_0_2 ^2 + 2 x_0_4 ^2 + 2 x_2_3 ^2
       + 0.0199999995529652 u_0_3 ^2 + 2 x_0_5 ^2 + 2 x_2_4 ^2
       + 0.0199999995529652 u_0_4 ^2 + 2 x_0_6 ^2 + 2 x_2_5 ^2
       + 0.0199999995529652 u_0_5 ^2 + 2 x_0_7 ^2 + 2 x_2_6 ^2
       + 0.0199999995529652 u_0_6 ^2 + 2 x_0_8 ^2 + 2 x_2_7 ^2
       + 0.0199999995529652 u_0_7 ^2 + 2 x_0_9 ^2 + 2 x_2_8 ^2
       + 0.0199999995529652 u_0_8 ^2 + 2 x_0_10 ^2 + 2 x_2_9 ^2
       + 0.0199999995529652 u_0_9 ^2 + 2 x_0_11 ^2 + 2 x_2_10 ^2
       + 0.0199999995529652 u_0_10 ^2 + 2 x_0_12 ^2 + 2 x_2_11 ^2
       + 0.0199999995529652 u_0_11 ^2 + 2 x_0_13 ^2 + 2 x_2_12 ^2
       + 0.0199999995529652 u_0_12 ^2 + 2 x_0_14 ^2 + 2 x_2_13 ^2
       + 0.0199999995529652 u_0_13 ^2 + 2 x_2_14 ^2
       + 0.0199999995529652 u_0_14 ^2 + 2 x_1_1 ^2 + 2 x_1_2 ^2 + 2 x_1_3 ^2
       + 2 x_1_4 ^2 + 2 x_1_5 ^2 + 2 x_1_6 ^2 + 2 x_1_7 ^2 + 2 x_1_8 ^2
       + 2 x_1_9 ^2 + 2 x_1_10 ^2 + 2 x_1_11 ^2 + 2 x_1_12 ^2 + 2 x_1_13 ^2
       + 2 x_1_14 ^2 + 0.0199999995529652 u_1_0 ^2
       + 0.0199999995529652 u_1_1 ^2 + 0.0199999995529652 u_1_2 ^2
       + 0.0199999995529652 u_1_3 ^2 + 0.0199999995529652 u_1_4 ^2
       + 0.0199999995529652 u_1_5 ^2 + 0.0199999995529652 u_1_6 ^2
       + 0.0199999995529652 u_1_7 ^2 + 0.0199999995529652 u_1_8 ^2
       + 0.0199999995529652 u_1_9 ^2 + 0.0199999995529652 u_1_10 ^2
       + 0.0199999995529652 u_1_11 ^2 + 0.0199999995529652 u_1_12 ^2
       + 0.0199999995529652 u_1_13 ^2 + 0.0199999995529652 u_1_14 ^2 ] / 2
       + 3009.25275464099
Subject To
 x0_constraints_0:   x_0_0  = 1.95329034328461
 x0_constraints_1:   x_1_0  = 1.73371553421021
 x0_constraints_2:   x_2_0  = 0.882453978061676
 dynamicConstr_0_0:  - x_0_0 + 0.0424264073371887 x_2_0 + x_0_1
                     - 0.141421362757683 u_0_0  = 0.0333216227591038
 dynamicConstr_0_1:  - x_0_1 + x_0_2 + 0.0424264073371887 x_2_1
                     - 0.141421362757683 u_0_1  = 0.0333216227591038
 dynamicConstr_0_2:  - x_0_2 + x_0_3 + 0.0424264073371887 x_2_2
                     - 0.141421362757683 u_0_2  = 0.0333216227591038
 dynamicConstr_0_3:  - x_0_3 + x_0_4 + 0.0424264073371887 x_2_3
                     - 0.141421362757683 u_0_3  = 0.0333216227591038
 dynamicConstr_0_4:  - x_0_4 + x_0_5 + 0.0424264073371887 x_2_4
                     - 0.141421362757683 u_0_4  = 0.0333216227591038
 dynamicConstr_0_5:  - x_0_5 + x_0_6 + 0.0424264073371887 x_2_5
                     - 0.141421362757683 u_0_5  = 0.0333216227591038
 dynamicConstr_0_6:  - x_0_6 + x_0_7 + 0.0424264073371887 x_2_6
                     - 0.141421362757683 u_0_6  = 0.0333216227591038
 dynamicConstr_0_7:  - x_0_7 + x_0_8 + 0.0424264073371887 x_2_7
                     - 0.141421362757683 u_0_7  = 0.0333216227591038
 dynamicConstr_0_8:  - x_0_8 + x_0_9 + 0.0424264073371887 x_2_8
                     - 0.141421362757683 u_0_8  = 0.0333216227591038
 dynamicConstr_0_9:  - x_0_9 + x_0_10 + 0.0424264073371887 x_2_9
                     - 0.141421362757683 u_0_9  = 0.0333216227591038
 dynamicConstr_0_10: - x_0_10 + x_0_11 + 0.0424264073371887 x_2_10
                     - 0.141421362757683 u_0_10  = 0.0333216227591038
 dynamicConstr_0_11: - x_0_11 + x_0_12 + 0.0424264073371887 x_2_11
                     - 0.141421362757683 u_0_11  = 0.0333216227591038
 dynamicConstr_0_12: - x_0_12 + x_0_13 + 0.0424264073371887 x_2_12
                     - 0.141421362757683 u_0_12  = 0.0333216227591038
 dynamicConstr_0_13: - x_0_13 + x_0_14 + 0.0424264073371887 x_2_13
                     - 0.141421362757683 u_0_13  = 0.0333216227591038
 dynamicConstr_0_14: - x_0_14 + x_0_15 + 0.0424264073371887 x_2_14
                     - 0.141421362757683 u_0_14  = 0.0333216227591038
 dynamicConstr_1_0:  - x_1_0 - 0.0424264073371887 x_2_0
                     - 0.141421362757683 u_0_0 + x_1_1  = -0.0333216227591038
 dynamicConstr_1_1:  - 0.0424264073371887 x_2_1 - 0.141421362757683 u_0_1
                     - x_1_1 + x_1_2  = -0.0333216227591038
 dynamicConstr_1_2:  - 0.0424264073371887 x_2_2 - 0.141421362757683 u_0_2
                     - x_1_2 + x_1_3  = -0.0333216227591038
 dynamicConstr_1_3:  - 0.0424264073371887 x_2_3 - 0.141421362757683 u_0_3
                     - x_1_3 + x_1_4  = -0.0333216227591038
 dynamicConstr_1_4:  - 0.0424264073371887 x_2_4 - 0.141421362757683 u_0_4
                     - x_1_4 + x_1_5  = -0.0333216227591038
 dynamicConstr_1_5:  - 0.0424264073371887 x_2_5 - 0.141421362757683 u_0_5
                     - x_1_5 + x_1_6  = -0.0333216227591038
 dynamicConstr_1_6:  - 0.0424264073371887 x_2_6 - 0.141421362757683 u_0_6
                     - x_1_6 + x_1_7  = -0.0333216227591038
 dynamicConstr_1_7:  - 0.0424264073371887 x_2_7 - 0.141421362757683 u_0_7
                     - x_1_7 + x_1_8  = -0.0333216227591038
 dynamicConstr_1_8:  - 0.0424264073371887 x_2_8 - 0.141421362757683 u_0_8
                     - x_1_8 + x_1_9  = -0.0333216227591038
 dynamicConstr_1_9:  - 0.0424264073371887 x_2_9 - 0.141421362757683 u_0_9
                     - x_1_9 + x_1_10  = -0.0333216227591038
 dynamicConstr_1_10: - 0.0424264073371887 x_2_10 - 0.141421362757683 u_0_10
                     - x_1_10 + x_1_11  = -0.0333216227591038
 dynamicConstr_1_11: - 0.0424264073371887 x_2_11 - 0.141421362757683 u_0_11
                     - x_1_11 + x_1_12  = -0.0333216227591038
 dynamicConstr_1_12: - 0.0424264073371887 x_2_12 - 0.141421362757683 u_0_12
                     - x_1_12 + x_1_13  = -0.0333216227591038
 dynamicConstr_1_13: - 0.0424264073371887 x_2_13 - 0.141421362757683 u_0_13
                     - x_1_13 + x_1_14  = -0.0333216227591038
 dynamicConstr_1_14: - 0.0424264073371887 x_2_14 - 0.141421362757683 u_0_14
                     - x_1_14 + x_1_15  = -0.0333216227591038
 dynamicConstr_2_0:  - x_2_0 + x_2_1 - 0.120000004768372 u_1_0  = 0
 dynamicConstr_2_1:  - x_2_1 + x_2_2 - 0.120000004768372 u_1_1  = 0
 dynamicConstr_2_2:  - x_2_2 + x_2_3 - 0.120000004768372 u_1_2  = 0
 dynamicConstr_2_3:  - x_2_3 + x_2_4 - 0.120000004768372 u_1_3  = 0
 dynamicConstr_2_4:  - x_2_4 + x_2_5 - 0.120000004768372 u_1_4  = 0
 dynamicConstr_2_5:  - x_2_5 + x_2_6 - 0.120000004768372 u_1_5  = 0
 dynamicConstr_2_6:  - x_2_6 + x_2_7 - 0.120000004768372 u_1_6  = 0
 dynamicConstr_2_7:  - x_2_7 + x_2_8 - 0.120000004768372 u_1_7  = 0
 dynamicConstr_2_8:  - x_2_8 + x_2_9 - 0.120000004768372 u_1_8  = 0
 dynamicConstr_2_9:  - x_2_9 + x_2_10 - 0.120000004768372 u_1_9  = 0
 dynamicConstr_2_10: - x_2_10 + x_2_11 - 0.120000004768372 u_1_10  = 0
 dynamicConstr_2_11: - x_2_11 + x_2_12 - 0.120000004768372 u_1_11  = 0
 dynamicConstr_2_12: - x_2_12 + x_2_13 - 0.120000004768372 u_1_12  = 0
 dynamicConstr_2_13: - x_2_13 + x_2_14 - 0.120000004768372 u_1_13  = 0
 dynamicConstr_2_14: - x_2_14 + x_2_15 - 0.120000004768372 u_1_14  = 0
Bounds
-30 <= x_0_0 <= 30
-30 <= x_1_0 <= 30
-3.14159265358979 <= x_2_0 <= 3.14159265358979
-30 <= x_0_1 <= 30
-0.5 <= u_0_0 <= 0.5
-30 <= x_0_2 <= 30
-3.14159265358979 <= x_2_1 <= 3.14159265358979
-0.5 <= u_0_1 <= 0.5
-30 <= x_0_3 <= 30
-3.14159265358979 <= x_2_2 <= 3.14159265358979
-0.5 <= u_0_2 <= 0.5
-30 <= x_0_4 <= 30
-3.14159265358979 <= x_2_3 <= 3.14159265358979
-0.5 <= u_0_3 <= 0.5
-30 <= x_0_5 <= 30
-3.14159265358979 <= x_2_4 <= 3.14159265358979
-0.5 <= u_0_4 <= 0.5
-30 <= x_0_6 <= 30
-3.14159265358979 <= x_2_5 <= 3.14159265358979
-0.5 <= u_0_5 <= 0.5
-30 <= x_0_7 <= 30
-3.14159265358979 <= x_2_6 <= 3.14159265358979
-0.5 <= u_0_6 <= 0.5
-30 <= x_0_8 <= 30
-3.14159265358979 <= x_2_7 <= 3.14159265358979
-0.5 <= u_0_7 <= 0.5
-30 <= x_0_9 <= 30
-3.14159265358979 <= x_2_8 <= 3.14159265358979
-0.5 <= u_0_8 <= 0.5
-30 <= x_0_10 <= 30
-3.14159265358979 <= x_2_9 <= 3.14159265358979
-0.5 <= u_0_9 <= 0.5
-30 <= x_0_11 <= 30
-3.14159265358979 <= x_2_10 <= 3.14159265358979
-0.5 <= u_0_10 <= 0.5
-30 <= x_0_12 <= 30
-3.14159265358979 <= x_2_11 <= 3.14159265358979
-0.5 <= u_0_11 <= 0.5
-30 <= x_0_13 <= 30
-3.14159265358979 <= x_2_12 <= 3.14159265358979
-0.5 <= u_0_12 <= 0.5
-30 <= x_0_14 <= 30
-3.14159265358979 <= x_2_13 <= 3.14159265358979
-0.5 <= u_0_13 <= 0.5
-30 <= x_0_15 <= 30
-3.14159265358979 <= x_2_14 <= 3.14159265358979
-0.5 <= u_0_14 <= 0.5
-30 <= x_1_1 <= 30
-30 <= x_1_2 <= 30
-30 <= x_1_3 <= 30
-30 <= x_1_4 <= 30
-30 <= x_1_5 <= 30
-30 <= x_1_6 <= 30
-30 <= x_1_7 <= 30
-30 <= x_1_8 <= 30
-30 <= x_1_9 <= 30
-30 <= x_1_10 <= 30
-30 <= x_1_11 <= 30
-30 <= x_1_12 <= 30
-30 <= x_1_13 <= 30
-30 <= x_1_14 <= 30
-30 <= x_1_15 <= 30
-0.785398163397448 <= u_1_0 <= 0.785398163397448
-0.785398163397448 <= u_1_1 <= 0.785398163397448
-0.785398163397448 <= u_1_2 <= 0.785398163397448
-0.785398163397448 <= u_1_3 <= 0.785398163397448
-0.785398163397448 <= u_1_4 <= 0.785398163397448
-0.785398163397448 <= u_1_5 <= 0.785398163397448
-0.785398163397448 <= u_1_6 <= 0.785398163397448
-0.785398163397448 <= u_1_7 <= 0.785398163397448
-0.785398163397448 <= u_1_8 <= 0.785398163397448
-0.785398163397448 <= u_1_9 <= 0.785398163397448
-0.785398163397448 <= u_1_10 <= 0.785398163397448
-0.785398163397448 <= u_1_11 <= 0.785398163397448
-0.785398163397448 <= u_1_12 <= 0.785398163397448
-0.785398163397448 <= u_1_13 <= 0.785398163397448
-3.14159265358979 <= x_2_15 <= 3.14159265358979
-0.785398163397448 <= u_1_14 <= 0.785398163397448
End
